TCS_Benchmarks/redos_fix/regexlib1_output_distinct_4317_4316_24_0.smt2
(set-logic QF_S)
(declare-const x String)
(assert (str.in.re x (re.inter  (re.++  (re.union  (re.++  (re.++  (re.union  (re.++  (re.union  (re.++  (str.to.re "\u{30}")  (str.to.re "\u{30}"))  (str.to.re "\u{2b}")) (re.++  (str.to.re "\u{34}") (re.++  (str.to.re "\u{39}") (re.opt  (re.union  (str.to.re "\u{20}") (re.union  (str.to.re "\u{2d}")  (str.to.re "\u{2f}"))) ))))  (str.to.re "\u{30}")) (re.++ (re.range "\u{31}" "\u{39}")  (re.union  (re.range "\u{30}" "\u{39}") (re.union  (re.++ (re.range "\u{30}" "\u{39}")   (re.range "\u{30}" "\u{39}")) (re.union  (re.++ (re.range "\u{30}" "\u{39}")   (re.++ (re.range "\u{30}" "\u{39}")   (re.range "\u{30}" "\u{39}")))  (re.++ (re.range "\u{30}" "\u{39}")   (re.++ (re.range "\u{30}" "\u{39}")   (re.++ (re.range "\u{30}" "\u{39}")   (re.range "\u{30}" "\u{39}"))))))))) (re.opt  (re.union  (str.to.re "\u{20}") (re.union  (str.to.re "\u{2d}")  (str.to.re "\u{2f}"))) ))  (re.++  (re.union  (re.++  (re.union  (re.++  (str.to.re "\u{30}")  (str.to.re "\u{30}"))  (str.to.re "\u{2b}")) (re.++  (str.to.re "\u{34}") (re.++  (str.to.re "\u{39}")  (str.to.re "\u{28}"))))  (re.++  (str.to.re "\u{28}")  (str.to.re "\u{30}"))) (re.++ (re.range "\u{31}" "\u{39}") (re.++  (re.union  (re.range "\u{30}" "\u{39}") (re.union  (re.++ (re.range "\u{30}" "\u{39}")   (re.range "\u{30}" "\u{39}")) (re.union  (re.++ (re.range "\u{30}" "\u{39}")   (re.++ (re.range "\u{30}" "\u{39}")   (re.range "\u{30}" "\u{39}")))  (re.++ (re.range "\u{30}" "\u{39}")   (re.++ (re.range "\u{30}" "\u{39}")   (re.++ (re.range "\u{30}" "\u{39}")   (re.range "\u{30}" "\u{39}"))))))) (re.++  (str.to.re "\u{29}") (re.opt  (re.union  (str.to.re "\u{20}") (re.union  (str.to.re "\u{2d}")  (str.to.re "\u{2f}"))) ))))))  (re.union  (re.range "\u{30}" "\u{39}") (re.union  (re.++ (re.range "\u{30}" "\u{39}")   (re.range "\u{30}" "\u{39}")) (re.union  (re.++ (re.range "\u{30}" "\u{39}")   (re.++ (re.range "\u{30}" "\u{39}")   (re.range "\u{30}" "\u{39}"))) (re.union  (re.++ (re.range "\u{30}" "\u{39}")   (re.++ (re.range "\u{30}" "\u{39}")   (re.++ (re.range "\u{30}" "\u{39}")   (re.range "\u{30}" "\u{39}")))) (re.union  (re.++ (re.range "\u{30}" "\u{39}")   (re.++ (re.range "\u{30}" "\u{39}")   (re.++ (re.range "\u{30}" "\u{39}")   (re.++ (re.range "\u{30}" "\u{39}")   (re.range "\u{30}" "\u{39}"))))) (re.union  (re.++ (re.range "\u{30}" "\u{39}")   (re.++ (re.range "\u{30}" "\u{39}")   (re.++ (re.range "\u{30}" "\u{39}")   (re.++ (re.range "\u{30}" "\u{39}")   (re.++ (re.range "\u{30}" "\u{39}")   (re.range "\u{30}" "\u{39}"))))))  (re.++ (re.range "\u{30}" "\u{39}")   (re.++ (re.range "\u{30}" "\u{39}")   (re.++ (re.range "\u{30}" "\u{39}")   (re.++ (re.range "\u{30}" "\u{39}")   (re.++ (re.range "\u{30}" "\u{39}")   (re.++ (re.range "\u{30}" "\u{39}")   (re.range "\u{30}" "\u{39}"))))))))))))))  (re.++  (re.++  (re.union  (re.++  (re.++  (re.union  (re.++  (re.union  (re.++  (str.to.re "\u{30}")  (str.to.re "\u{30}"))  (str.to.re "\u{2b}")) (re.++  (str.to.re "\u{34}") (re.++  (str.to.re "\u{39}") (re.opt  (re.union  (str.to.re "\u{20}") (re.union  (str.to.re "\u{2d}")  (str.to.re "\u{2f}"))) ))))  (str.to.re "\u{30}")) (re.++ (re.range "\u{31}" "\u{39}")  (re.union  (re.range "\u{30}" "\u{39}") (re.union  (re.++ (re.range "\u{30}" "\u{39}")   (re.range "\u{30}" "\u{39}")) (re.union  (re.++ (re.range "\u{30}" "\u{39}")   (re.++ (re.range "\u{30}" "\u{39}")   (re.range "\u{30}" "\u{39}")))  (re.++ (re.range "\u{30}" "\u{39}")   (re.++ (re.range "\u{30}" "\u{39}")   (re.++ (re.range "\u{30}" "\u{39}")   (re.range "\u{30}" "\u{39}"))))))))) (re.opt  (re.union  (str.to.re "\u{20}") (re.union  (str.to.re "\u{2d}")  (str.to.re "\u{2f}"))) ))  (re.++  (re.union  (re.++  (re.union  (re.++  (str.to.re "\u{30}")  (str.to.re "\u{30}"))  (str.to.re "\u{2b}")) (re.++  (str.to.re "\u{34}") (re.++  (str.to.re "\u{39}")  (str.to.re "\u{28}"))))  (re.++  (str.to.re "\u{28}")  (str.to.re "\u{30}"))) (re.++ (re.range "\u{31}" "\u{39}") (re.++  (re.union  (re.range "\u{30}" "\u{39}") (re.union  (re.++ (re.range "\u{30}" "\u{39}")   (re.range "\u{30}" "\u{39}")) (re.union  (re.++ (re.range "\u{30}" "\u{39}")   (re.++ (re.range "\u{30}" "\u{39}")   (re.range "\u{30}" "\u{39}")))  (re.++ (re.range "\u{30}" "\u{39}")   (re.++ (re.range "\u{30}" "\u{39}")   (re.++ (re.range "\u{30}" "\u{39}")   (re.range "\u{30}" "\u{39}"))))))) (re.++  (str.to.re "\u{29}") (re.opt  (re.union  (str.to.re "\u{20}") (re.union  (str.to.re "\u{2d}")  (str.to.re "\u{2f}"))) ))))))  (re.union  (re.range "\u{30}" "\u{39}") (re.union  (re.++ (re.range "\u{30}" "\u{39}")   (re.range "\u{30}" "\u{39}")) (re.union  (re.++ (re.range "\u{30}" "\u{39}")   (re.++ (re.range "\u{30}" "\u{39}")   (re.range "\u{30}" "\u{39}"))) (re.union  (re.++ (re.range "\u{30}" "\u{39}")   (re.++ (re.range "\u{30}" "\u{39}")   (re.++ (re.range "\u{30}" "\u{39}")   (re.range "\u{30}" "\u{39}")))) (re.union  (re.++ (re.range "\u{30}" "\u{39}")   (re.++ (re.range "\u{30}" "\u{39}")   (re.++ (re.range "\u{30}" "\u{39}")   (re.++ (re.range "\u{30}" "\u{39}")   (re.range "\u{30}" "\u{39}"))))) (re.union  (re.++ (re.range "\u{30}" "\u{39}")   (re.++ (re.range "\u{30}" "\u{39}")   (re.++ (re.range "\u{30}" "\u{39}")   (re.++ (re.range "\u{30}" "\u{39}")   (re.++ (re.range "\u{30}" "\u{39}")   (re.range "\u{30}" "\u{39}"))))))  (re.++ (re.range "\u{30}" "\u{39}")   (re.++ (re.range "\u{30}" "\u{39}")   (re.++ (re.range "\u{30}" "\u{39}")   (re.++ (re.range "\u{30}" "\u{39}")   (re.++ (re.range "\u{30}" "\u{39}")   (re.++ (re.range "\u{30}" "\u{39}")   (re.range "\u{30}" "\u{39}")))))))))))))) (re.++ (re.opt  (re.union  (str.to.re "\u{20}") (re.union  (str.to.re "\u{2d}")  (str.to.re "\u{2f}"))) )  (re.union  (re.range "\u{30}" "\u{39}") (re.union  (re.++ (re.range "\u{30}" "\u{39}")   (re.range "\u{30}" "\u{39}")) (re.union  (re.++ (re.range "\u{30}" "\u{39}")   (re.++ (re.range "\u{30}" "\u{39}")   (re.range "\u{30}" "\u{39}"))) (re.union  (re.++ (re.range "\u{30}" "\u{39}")   (re.++ (re.range "\u{30}" "\u{39}")   (re.++ (re.range "\u{30}" "\u{39}")   (re.range "\u{30}" "\u{39}"))))  (re.++ (re.range "\u{30}" "\u{39}")   (re.++ (re.range "\u{30}" "\u{39}")   (re.++ (re.range "\u{30}" "\u{39}")   (re.++ (re.range "\u{30}" "\u{39}")   (re.range "\u{30}" "\u{39}")))))))))))  (re.union  (re.range "\u{30}" "\u{39}") (re.union  (re.++ (re.range "\u{30}" "\u{39}")   (re.range "\u{30}" "\u{39}")) (re.union  (re.++ (re.range "\u{30}" "\u{39}")   (re.++ (re.range "\u{30}" "\u{39}")   (re.range "\u{30}" "\u{39}"))) (re.union  (re.++ (re.range "\u{30}" "\u{39}")   (re.++ (re.range "\u{30}" "\u{39}")   (re.++ (re.range "\u{30}" "\u{39}")   (re.range "\u{30}" "\u{39}"))))  (re.++ (re.range "\u{30}" "\u{39}")   (re.++ (re.range "\u{30}" "\u{39}")   (re.++ (re.range "\u{30}" "\u{39}")   (re.++ (re.range "\u{30}" "\u{39}")   (re.range "\u{30}" "\u{39}"))))))))) )))
(check-sat)
(get-model)