TCS_Benchmarks/redos_fix/regexlib1_output_distinct_4317_4316_24_0.txt
((((((00|\+)49[ \-\/]?)|0)[1-9][0-9]{1,4})[ \-\/]?)|((((00|\+)49\()|\(0)[1-9][0-9]{1,4}\)[ \-\/]?))[0-9]{1,7}
(((((((00|\+)49[ \-\/]?)|0)[1-9][0-9]{1,4})[ \-\/]?)|((((00|\+)49\()|\(0)[1-9][0-9]{1,4}\)[ \-\/]?))[0-9]{1,7})([ \-\/]?)([0-9]{1,5})
[0-9]{1,5}